pr_w = 22;
pr_h = 22;

n_pieces = 16;

L = [|3, 3
     |3, 4
     |3, 5
     |3, 6
     |3, 7
     |3, 8
     |3, 9
     |3, 10
     |3, 11
     |3, 12
     |3, 13
     |3, 14
     |3, 22
     |4, 3
     |4, 19
     |6, 4
     |];
